row=11;
column=11;
Board=[|0,0,0,0,0,0,0,5,0,0,0|0,0,0,0,0,0,0,0,0,0,0|0,0,0,0,0,0,0,0,4,6,0|0,0,0,0,0,0,0,0,0,0,0|0,0,0,0,0,0,0,0,0,0,0|0,0,0,0,0,0,0,0,0,0,0|0,1,0,0,0,0,2,0,0,0,0|0,0,0,0,0,0,6,0,0,0,0|0,2,0,0,2,0,3,0,0,0,0|0,3,0,0,0,0,0,0,0,0,1|0,0,0,0,0,0,0,0,0,0,0|];
right = [5,0,3,2,1,0,2,1,3,3,0];
bottom = [0,3,3,0,3,2,4,1,1,1,2];
